
Gurobi 7.0.2 (win64, Python) logging started 01/29/19 09:57:29

Read LP format model from file model.lp
Reading time = 0.82 seconds
objective_function: 84889 rows, 68970 columns, 244610 nonzeros
Iteration    Objective       Primal Inf.    Dual Inf.      Time
       0      handle free variables                          0s

IIS computed: 14 constraints and 7 bounds
IIS runtime: 0.26 seconds
